16 32
1 2 2
1 5 2
2 3 5
2 6 5
3 4 1
3 7 4
4 8 1
5 6 3
5 9 3
6 7 2
6 10 2
7 8 3
7 11 3
8 12 1
9 10 5
9 13 2
10 11 3
10 14 3
11 12 1
11 15 1
12 16 4
13 14 1
14 15 4
15 16 5
1 13 3
2 14 3
3 15 3
4 16 1
1 4 3
5 8 2
9 12 2
13 16 4
